# High-level single point energy — CCSD(T)/def2-TZVPP
# Step 2 in the ORCA demo workflow (uses B3LYP-optimised geometry from step 1)

! CCSD(T) def2-TZVPP TightSCF

%pal nprocs 4 end
%maxcore 4000

* xyz 0 1
  O    0.000000    0.000000    0.117300
  H    0.000000    0.757200   -0.469200
  H    0.000000   -0.757200   -0.469200
*
