# MOF Geometry Optimization - Pure PBE
SYSTEM = Cu-BTC (HKUST-1) primitive cell optimization

# Electronic structure
PREC    = Accurate
ENCUT   = 450
EDIFF   = 1E-5
NELM    = 100

# K-space
ISMEAR  = 0
SIGMA   = 0.05

# Geometry optimization
IBRION  = 2
NSW     = 200
ISIF    = 3
EDIFFG  = -0.02

# Output
LWAVE   = .FALSE.
LCHARG  = .FALSE.
LORBIT  = 11

# Spin
ISPIN   = 2
MAGMOM  = 4*5.0 12*0.6 12*0.6 6*0.0
