Cu-BTC MOF (HKUST-1) primitive cell
1.0
   10.2000000000    0.0000000000    0.0000000000
    0.0000000000   10.2000000000    0.0000000000
    0.0000000000    0.0000000000   10.2000000000
Cu C O H
4 12 12 6
Direct
  0.250000  0.250000  0.250000  Cu
  0.750000  0.750000  0.250000  Cu
  0.750000  0.250000  0.750000  Cu
  0.250000  0.750000  0.750000  Cu
  0.125000  0.375000  0.125000  C
  0.875000  0.625000  0.125000  C
  0.875000  0.375000  0.875000  C
  0.125000  0.625000  0.875000  C
  0.375000  0.125000  0.125000  C
  0.625000  0.875000  0.125000  C
  0.625000  0.125000  0.875000  C
  0.375000  0.875000  0.875000  C
  0.125000  0.125000  0.375000  C
  0.875000  0.875000  0.375000  C
  0.875000  0.125000  0.625000  C
  0.125000  0.875000  0.625000  C
  0.050000  0.325000  0.075000  O
  0.950000  0.675000  0.075000  O
  0.950000  0.325000  0.925000  O
  0.050000  0.675000  0.925000  O
  0.325000  0.050000  0.075000  O
  0.675000  0.950000  0.075000  O
  0.675000  0.050000  0.925000  O
  0.325000  0.950000  0.925000  O
  0.075000  0.050000  0.325000  O
  0.925000  0.950000  0.325000  O
  0.925000  0.050000  0.675000  O
  0.075000  0.950000  0.675000  O
  0.000000  0.400000  0.100000  H
  1.000000  0.600000  0.100000  H
  0.400000  0.000000  0.100000  H
  0.600000  1.000000  0.100000  H
  0.100000  0.000000  0.400000  H
  0.900000  1.000000  0.400000  H
