# Si bulk - initial SCF calculation
SYSTEM  = Si-diamond
PREC    = Accurate
ENCUT   = 400
ISMEAR  = 0
SIGMA   = 0.05
EDIFF   = 1E-6
NELM    = 100
LREAL   = .FALSE.
LWAVE   = .TRUE.
LCHARG  = .TRUE.
