# Si bulk - ENCUT convergence test (400 -> 520 eV)
SYSTEM  = Si-diamond
PREC    = Accurate
ENCUT   = 520
ISMEAR  = 0
SIGMA   = 0.05
EDIFF   = 1E-6
NELM    = 100
LREAL   = .FALSE.
LWAVE   = .TRUE.
LCHARG  = .TRUE.
