# MOF + C2H2 Guest Molecule Relaxation
SYSTEM = Cu-BTC + acetylene adsorption structure

# Electronic structure  
PREC    = Accurate
ENCUT   = 450
EDIFF   = 1E-5
NELM    = 100

# K-space
ISMEAR  = 0
SIGMA   = 0.05

# Geometry optimization (ions only)
IBRION  = 2
NSW     = 200
ISIF    = 2
EDIFFG  = -0.02

# Output
LWAVE   = .FALSE.
LCHARG  = .FALSE.
LORBIT  = 11

# Spin
ISPIN   = 2
MAGMOM  = 4*5.0 14*0.6 12*0.6 8*0.0
